num_offers = 30;
num_halls = 10;
start=[43,1,31,31,41,54,75,35,69,55,33,24,6,39,5,75,26,17,28,14,33,11,52,42,35,11,16,50,33,31];
end=[70,20,93,41,79,99,79,52,94,67,59,97,24,98,93,99,46,30,78,96,54,38,61,53,52,81,18,88,53,78];
price=[322,773,767,179,2598,3664,136,1227,1059,399,1494,1920,1171,1251,3487,1859,700,1183,3207,2093,1208,1867,948,774,1495,3726,266,3425,1146,4788];
requirement=[934,243,837,447,853,202,406,228,877,841,698,792,721,974,969,247,871,476,422,912,748,578,613,949,440,297,814,892,370,324];
capacity=[359,799,984,578,704,993,209,904,908,478];
